200
150
100
99
99
98
98
97
97
96
95
95
95
95
94
94
93
92
92
92
92
91
90
88
87
87
87
87
87
87
87
86
86
85
85
84
84
84
82
82
82
82
81
81
81
81
80
80
80
80
79
79
78
78
77
76
75
75
75
75
73
72
72
71
71
71
70
70
70
69
69
68
67
66
66
66
65
64
63
62
62
62
61
61
61
60
59
59
57
57
56
56
55
55
53
53
52
51
51
51
51
50
50
49
49
49
49
48
47
47
47
47
47
47
47
46
46
46
45
45
45
45
45
43
43
43
43
42
41
40
38
38
38
38
36
36
36
35
35
34
34
33
33
32
32
31
30
30
28
28
28
27
27
27
26
26
25
25
22
21
20
19
19
18
17
17
17
17
16
14
14
14
13
13
13
12
12
11
11
11
10
10
9
8
7
6
6
4
4
4
4
4
4
3
3
3
3
3
1
1
1
1
